p tw 14 211 1 
1 2 
1 3 
1 4 
1 5 
1 6 
1 7 
2 8 
2 9 
2 10 
2 11 
2 12 
2 13 
2 14 
1 8 
1 9 
1 10 
2 8 
2 11 
2 12 
3 8 
3 13 
3 14 
4 9 
4 11 
4 13 
5 9 
5 12 
5 14 
6 10 
6 11 
6 14 
7 10 
7 12 
7 13 
